n_machines = 5;
n_resources = 6;
n_jobs = 60;
horizon = 28969;
LB = 5972;
n_jobs_per_resource = [10, 10, 10, 10, 10, 10];
duration = [696, 742, 589, 626, 473, 457, 67, 770, 568, 170, 396, 16, 852, 43, 664, 541, 173, 940, 875, 967, 642, 381, 591, 217, 23, 342, 644, 836, 167, 551, 559, 148, 300, 427, 117, 5, 735, 722, 252, 118, 505, 434, 770, 674, 859, 962, 195, 722, 367, 484, 125, 288, 229, 350, 28, 685, 959, 518, 722, 691]